c *********************************
c * Circuit generated by BenCGen
c *
c * Parity_307
c *
c * Ports with 1 gate(s): 1
c * Ports with 2 gate(s): 307
c * Total gates: 308
c *********************************
p cnf 615 1229
1 310 0
-1 -310 0
1 -309 0
310 -309 0
-1 -310 309 0
1 2 -311 0
-1 2 311 0
1 -2 311 0
-1 -2 -311 0
3 4 -312 0
-3 4 312 0
3 -4 312 0
-3 -4 -312 0
5 6 -313 0
-5 6 313 0
5 -6 313 0
-5 -6 -313 0
7 8 -314 0
-7 8 314 0
7 -8 314 0
-7 -8 -314 0
9 10 -315 0
-9 10 315 0
9 -10 315 0
-9 -10 -315 0
11 12 -316 0
-11 12 316 0
11 -12 316 0
-11 -12 -316 0
13 14 -317 0
-13 14 317 0
13 -14 317 0
-13 -14 -317 0
15 16 -318 0
-15 16 318 0
15 -16 318 0
-15 -16 -318 0
17 18 -319 0
-17 18 319 0
17 -18 319 0
-17 -18 -319 0
19 20 -320 0
-19 20 320 0
19 -20 320 0
-19 -20 -320 0
21 22 -321 0
-21 22 321 0
21 -22 321 0
-21 -22 -321 0
23 24 -322 0
-23 24 322 0
23 -24 322 0
-23 -24 -322 0
25 26 -323 0
-25 26 323 0
25 -26 323 0
-25 -26 -323 0
27 28 -324 0
-27 28 324 0
27 -28 324 0
-27 -28 -324 0
29 30 -325 0
-29 30 325 0
29 -30 325 0
-29 -30 -325 0
31 32 -326 0
-31 32 326 0
31 -32 326 0
-31 -32 -326 0
33 34 -327 0
-33 34 327 0
33 -34 327 0
-33 -34 -327 0
35 36 -328 0
-35 36 328 0
35 -36 328 0
-35 -36 -328 0
37 38 -329 0
-37 38 329 0
37 -38 329 0
-37 -38 -329 0
39 40 -330 0
-39 40 330 0
39 -40 330 0
-39 -40 -330 0
41 42 -331 0
-41 42 331 0
41 -42 331 0
-41 -42 -331 0
43 44 -332 0
-43 44 332 0
43 -44 332 0
-43 -44 -332 0
45 46 -333 0
-45 46 333 0
45 -46 333 0
-45 -46 -333 0
47 48 -334 0
-47 48 334 0
47 -48 334 0
-47 -48 -334 0
49 50 -335 0
-49 50 335 0
49 -50 335 0
-49 -50 -335 0
51 52 -336 0
-51 52 336 0
51 -52 336 0
-51 -52 -336 0
53 54 -337 0
-53 54 337 0
53 -54 337 0
-53 -54 -337 0
55 56 -338 0
-55 56 338 0
55 -56 338 0
-55 -56 -338 0
57 58 -339 0
-57 58 339 0
57 -58 339 0
-57 -58 -339 0
59 60 -340 0
-59 60 340 0
59 -60 340 0
-59 -60 -340 0
61 62 -341 0
-61 62 341 0
61 -62 341 0
-61 -62 -341 0
63 64 -342 0
-63 64 342 0
63 -64 342 0
-63 -64 -342 0
65 66 -343 0
-65 66 343 0
65 -66 343 0
-65 -66 -343 0
67 68 -344 0
-67 68 344 0
67 -68 344 0
-67 -68 -344 0
69 70 -345 0
-69 70 345 0
69 -70 345 0
-69 -70 -345 0
71 72 -346 0
-71 72 346 0
71 -72 346 0
-71 -72 -346 0
73 74 -347 0
-73 74 347 0
73 -74 347 0
-73 -74 -347 0
75 76 -348 0
-75 76 348 0
75 -76 348 0
-75 -76 -348 0
77 78 -349 0
-77 78 349 0
77 -78 349 0
-77 -78 -349 0
79 80 -350 0
-79 80 350 0
79 -80 350 0
-79 -80 -350 0
81 82 -351 0
-81 82 351 0
81 -82 351 0
-81 -82 -351 0
83 84 -352 0
-83 84 352 0
83 -84 352 0
-83 -84 -352 0
85 86 -353 0
-85 86 353 0
85 -86 353 0
-85 -86 -353 0
87 88 -354 0
-87 88 354 0
87 -88 354 0
-87 -88 -354 0
89 90 -355 0
-89 90 355 0
89 -90 355 0
-89 -90 -355 0
91 92 -356 0
-91 92 356 0
91 -92 356 0
-91 -92 -356 0
93 94 -357 0
-93 94 357 0
93 -94 357 0
-93 -94 -357 0
95 96 -358 0
-95 96 358 0
95 -96 358 0
-95 -96 -358 0
97 98 -359 0
-97 98 359 0
97 -98 359 0
-97 -98 -359 0
99 100 -360 0
-99 100 360 0
99 -100 360 0
-99 -100 -360 0
101 102 -361 0
-101 102 361 0
101 -102 361 0
-101 -102 -361 0
103 104 -362 0
-103 104 362 0
103 -104 362 0
-103 -104 -362 0
105 106 -363 0
-105 106 363 0
105 -106 363 0
-105 -106 -363 0
107 108 -364 0
-107 108 364 0
107 -108 364 0
-107 -108 -364 0
109 110 -365 0
-109 110 365 0
109 -110 365 0
-109 -110 -365 0
111 112 -366 0
-111 112 366 0
111 -112 366 0
-111 -112 -366 0
113 114 -367 0
-113 114 367 0
113 -114 367 0
-113 -114 -367 0
115 116 -368 0
-115 116 368 0
115 -116 368 0
-115 -116 -368 0
117 118 -369 0
-117 118 369 0
117 -118 369 0
-117 -118 -369 0
119 120 -370 0
-119 120 370 0
119 -120 370 0
-119 -120 -370 0
121 122 -371 0
-121 122 371 0
121 -122 371 0
-121 -122 -371 0
123 124 -372 0
-123 124 372 0
123 -124 372 0
-123 -124 -372 0
125 126 -373 0
-125 126 373 0
125 -126 373 0
-125 -126 -373 0
127 128 -374 0
-127 128 374 0
127 -128 374 0
-127 -128 -374 0
129 130 -375 0
-129 130 375 0
129 -130 375 0
-129 -130 -375 0
131 132 -376 0
-131 132 376 0
131 -132 376 0
-131 -132 -376 0
133 134 -377 0
-133 134 377 0
133 -134 377 0
-133 -134 -377 0
135 136 -378 0
-135 136 378 0
135 -136 378 0
-135 -136 -378 0
137 138 -379 0
-137 138 379 0
137 -138 379 0
-137 -138 -379 0
139 140 -380 0
-139 140 380 0
139 -140 380 0
-139 -140 -380 0
141 142 -381 0
-141 142 381 0
141 -142 381 0
-141 -142 -381 0
143 144 -382 0
-143 144 382 0
143 -144 382 0
-143 -144 -382 0
145 146 -383 0
-145 146 383 0
145 -146 383 0
-145 -146 -383 0
147 148 -384 0
-147 148 384 0
147 -148 384 0
-147 -148 -384 0
149 150 -385 0
-149 150 385 0
149 -150 385 0
-149 -150 -385 0
151 152 -386 0
-151 152 386 0
151 -152 386 0
-151 -152 -386 0
153 154 -387 0
-153 154 387 0
153 -154 387 0
-153 -154 -387 0
155 156 -388 0
-155 156 388 0
155 -156 388 0
-155 -156 -388 0
157 158 -389 0
-157 158 389 0
157 -158 389 0
-157 -158 -389 0
159 160 -390 0
-159 160 390 0
159 -160 390 0
-159 -160 -390 0
161 162 -391 0
-161 162 391 0
161 -162 391 0
-161 -162 -391 0
163 164 -392 0
-163 164 392 0
163 -164 392 0
-163 -164 -392 0
165 166 -393 0
-165 166 393 0
165 -166 393 0
-165 -166 -393 0
167 168 -394 0
-167 168 394 0
167 -168 394 0
-167 -168 -394 0
169 170 -395 0
-169 170 395 0
169 -170 395 0
-169 -170 -395 0
171 172 -396 0
-171 172 396 0
171 -172 396 0
-171 -172 -396 0
173 174 -397 0
-173 174 397 0
173 -174 397 0
-173 -174 -397 0
175 176 -398 0
-175 176 398 0
175 -176 398 0
-175 -176 -398 0
177 178 -399 0
-177 178 399 0
177 -178 399 0
-177 -178 -399 0
179 180 -400 0
-179 180 400 0
179 -180 400 0
-179 -180 -400 0
181 182 -401 0
-181 182 401 0
181 -182 401 0
-181 -182 -401 0
183 184 -402 0
-183 184 402 0
183 -184 402 0
-183 -184 -402 0
185 186 -403 0
-185 186 403 0
185 -186 403 0
-185 -186 -403 0
187 188 -404 0
-187 188 404 0
187 -188 404 0
-187 -188 -404 0
189 190 -405 0
-189 190 405 0
189 -190 405 0
-189 -190 -405 0
191 192 -406 0
-191 192 406 0
191 -192 406 0
-191 -192 -406 0
193 194 -407 0
-193 194 407 0
193 -194 407 0
-193 -194 -407 0
195 196 -408 0
-195 196 408 0
195 -196 408 0
-195 -196 -408 0
197 198 -409 0
-197 198 409 0
197 -198 409 0
-197 -198 -409 0
199 200 -410 0
-199 200 410 0
199 -200 410 0
-199 -200 -410 0
201 202 -411 0
-201 202 411 0
201 -202 411 0
-201 -202 -411 0
203 204 -412 0
-203 204 412 0
203 -204 412 0
-203 -204 -412 0
205 206 -413 0
-205 206 413 0
205 -206 413 0
-205 -206 -413 0
207 208 -414 0
-207 208 414 0
207 -208 414 0
-207 -208 -414 0
209 210 -415 0
-209 210 415 0
209 -210 415 0
-209 -210 -415 0
211 212 -416 0
-211 212 416 0
211 -212 416 0
-211 -212 -416 0
213 214 -417 0
-213 214 417 0
213 -214 417 0
-213 -214 -417 0
215 216 -418 0
-215 216 418 0
215 -216 418 0
-215 -216 -418 0
217 218 -419 0
-217 218 419 0
217 -218 419 0
-217 -218 -419 0
219 220 -420 0
-219 220 420 0
219 -220 420 0
-219 -220 -420 0
221 222 -421 0
-221 222 421 0
221 -222 421 0
-221 -222 -421 0
223 224 -422 0
-223 224 422 0
223 -224 422 0
-223 -224 -422 0
225 226 -423 0
-225 226 423 0
225 -226 423 0
-225 -226 -423 0
227 228 -424 0
-227 228 424 0
227 -228 424 0
-227 -228 -424 0
229 230 -425 0
-229 230 425 0
229 -230 425 0
-229 -230 -425 0
231 232 -426 0
-231 232 426 0
231 -232 426 0
-231 -232 -426 0
233 234 -427 0
-233 234 427 0
233 -234 427 0
-233 -234 -427 0
235 236 -428 0
-235 236 428 0
235 -236 428 0
-235 -236 -428 0
237 238 -429 0
-237 238 429 0
237 -238 429 0
-237 -238 -429 0
239 240 -430 0
-239 240 430 0
239 -240 430 0
-239 -240 -430 0
241 242 -431 0
-241 242 431 0
241 -242 431 0
-241 -242 -431 0
243 244 -432 0
-243 244 432 0
243 -244 432 0
-243 -244 -432 0
245 246 -433 0
-245 246 433 0
245 -246 433 0
-245 -246 -433 0
247 248 -434 0
-247 248 434 0
247 -248 434 0
-247 -248 -434 0
249 250 -435 0
-249 250 435 0
249 -250 435 0
-249 -250 -435 0
251 252 -436 0
-251 252 436 0
251 -252 436 0
-251 -252 -436 0
253 254 -437 0
-253 254 437 0
253 -254 437 0
-253 -254 -437 0
255 256 -438 0
-255 256 438 0
255 -256 438 0
-255 -256 -438 0
257 258 -439 0
-257 258 439 0
257 -258 439 0
-257 -258 -439 0
259 260 -440 0
-259 260 440 0
259 -260 440 0
-259 -260 -440 0
261 262 -441 0
-261 262 441 0
261 -262 441 0
-261 -262 -441 0
263 264 -442 0
-263 264 442 0
263 -264 442 0
-263 -264 -442 0
265 266 -443 0
-265 266 443 0
265 -266 443 0
-265 -266 -443 0
267 268 -444 0
-267 268 444 0
267 -268 444 0
-267 -268 -444 0
269 270 -445 0
-269 270 445 0
269 -270 445 0
-269 -270 -445 0
271 272 -446 0
-271 272 446 0
271 -272 446 0
-271 -272 -446 0
273 274 -447 0
-273 274 447 0
273 -274 447 0
-273 -274 -447 0
275 276 -448 0
-275 276 448 0
275 -276 448 0
-275 -276 -448 0
277 278 -449 0
-277 278 449 0
277 -278 449 0
-277 -278 -449 0
279 280 -450 0
-279 280 450 0
279 -280 450 0
-279 -280 -450 0
281 282 -451 0
-281 282 451 0
281 -282 451 0
-281 -282 -451 0
283 284 -452 0
-283 284 452 0
283 -284 452 0
-283 -284 -452 0
285 286 -453 0
-285 286 453 0
285 -286 453 0
-285 -286 -453 0
287 288 -454 0
-287 288 454 0
287 -288 454 0
-287 -288 -454 0
289 290 -455 0
-289 290 455 0
289 -290 455 0
-289 -290 -455 0
291 292 -456 0
-291 292 456 0
291 -292 456 0
-291 -292 -456 0
293 294 -457 0
-293 294 457 0
293 -294 457 0
-293 -294 -457 0
295 296 -458 0
-295 296 458 0
295 -296 458 0
-295 -296 -458 0
297 298 -459 0
-297 298 459 0
297 -298 459 0
-297 -298 -459 0
299 300 -460 0
-299 300 460 0
299 -300 460 0
-299 -300 -460 0
301 302 -461 0
-301 302 461 0
301 -302 461 0
-301 -302 -461 0
303 304 -462 0
-303 304 462 0
303 -304 462 0
-303 -304 -462 0
305 306 -463 0
-305 306 463 0
305 -306 463 0
-305 -306 -463 0
311 312 -464 0
-311 312 464 0
311 -312 464 0
-311 -312 -464 0
313 314 -465 0
-313 314 465 0
313 -314 465 0
-313 -314 -465 0
315 316 -466 0
-315 316 466 0
315 -316 466 0
-315 -316 -466 0
317 318 -467 0
-317 318 467 0
317 -318 467 0
-317 -318 -467 0
319 320 -468 0
-319 320 468 0
319 -320 468 0
-319 -320 -468 0
321 322 -469 0
-321 322 469 0
321 -322 469 0
-321 -322 -469 0
323 324 -470 0
-323 324 470 0
323 -324 470 0
-323 -324 -470 0
325 326 -471 0
-325 326 471 0
325 -326 471 0
-325 -326 -471 0
327 328 -472 0
-327 328 472 0
327 -328 472 0
-327 -328 -472 0
329 330 -473 0
-329 330 473 0
329 -330 473 0
-329 -330 -473 0
331 332 -474 0
-331 332 474 0
331 -332 474 0
-331 -332 -474 0
333 334 -475 0
-333 334 475 0
333 -334 475 0
-333 -334 -475 0
335 336 -476 0
-335 336 476 0
335 -336 476 0
-335 -336 -476 0
337 338 -477 0
-337 338 477 0
337 -338 477 0
-337 -338 -477 0
339 340 -478 0
-339 340 478 0
339 -340 478 0
-339 -340 -478 0
341 342 -479 0
-341 342 479 0
341 -342 479 0
-341 -342 -479 0
343 344 -480 0
-343 344 480 0
343 -344 480 0
-343 -344 -480 0
345 346 -481 0
-345 346 481 0
345 -346 481 0
-345 -346 -481 0
347 348 -482 0
-347 348 482 0
347 -348 482 0
-347 -348 -482 0
349 350 -483 0
-349 350 483 0
349 -350 483 0
-349 -350 -483 0
351 352 -484 0
-351 352 484 0
351 -352 484 0
-351 -352 -484 0
353 354 -485 0
-353 354 485 0
353 -354 485 0
-353 -354 -485 0
355 356 -486 0
-355 356 486 0
355 -356 486 0
-355 -356 -486 0
357 358 -487 0
-357 358 487 0
357 -358 487 0
-357 -358 -487 0
359 360 -488 0
-359 360 488 0
359 -360 488 0
-359 -360 -488 0
361 362 -489 0
-361 362 489 0
361 -362 489 0
-361 -362 -489 0
363 364 -490 0
-363 364 490 0
363 -364 490 0
-363 -364 -490 0
365 366 -491 0
-365 366 491 0
365 -366 491 0
-365 -366 -491 0
367 368 -492 0
-367 368 492 0
367 -368 492 0
-367 -368 -492 0
369 370 -493 0
-369 370 493 0
369 -370 493 0
-369 -370 -493 0
371 372 -494 0
-371 372 494 0
371 -372 494 0
-371 -372 -494 0
373 374 -495 0
-373 374 495 0
373 -374 495 0
-373 -374 -495 0
375 376 -496 0
-375 376 496 0
375 -376 496 0
-375 -376 -496 0
377 378 -497 0
-377 378 497 0
377 -378 497 0
-377 -378 -497 0
379 380 -498 0
-379 380 498 0
379 -380 498 0
-379 -380 -498 0
381 382 -499 0
-381 382 499 0
381 -382 499 0
-381 -382 -499 0
383 384 -500 0
-383 384 500 0
383 -384 500 0
-383 -384 -500 0
385 386 -501 0
-385 386 501 0
385 -386 501 0
-385 -386 -501 0
387 388 -502 0
-387 388 502 0
387 -388 502 0
-387 -388 -502 0
389 390 -503 0
-389 390 503 0
389 -390 503 0
-389 -390 -503 0
391 392 -504 0
-391 392 504 0
391 -392 504 0
-391 -392 -504 0
393 394 -505 0
-393 394 505 0
393 -394 505 0
-393 -394 -505 0
395 396 -506 0
-395 396 506 0
395 -396 506 0
-395 -396 -506 0
397 398 -507 0
-397 398 507 0
397 -398 507 0
-397 -398 -507 0
399 400 -508 0
-399 400 508 0
399 -400 508 0
-399 -400 -508 0
401 402 -509 0
-401 402 509 0
401 -402 509 0
-401 -402 -509 0
403 404 -510 0
-403 404 510 0
403 -404 510 0
-403 -404 -510 0
405 406 -511 0
-405 406 511 0
405 -406 511 0
-405 -406 -511 0
407 408 -512 0
-407 408 512 0
407 -408 512 0
-407 -408 -512 0
409 410 -513 0
-409 410 513 0
409 -410 513 0
-409 -410 -513 0
411 412 -514 0
-411 412 514 0
411 -412 514 0
-411 -412 -514 0
413 414 -515 0
-413 414 515 0
413 -414 515 0
-413 -414 -515 0
415 416 -516 0
-415 416 516 0
415 -416 516 0
-415 -416 -516 0
417 418 -517 0
-417 418 517 0
417 -418 517 0
-417 -418 -517 0
419 420 -518 0
-419 420 518 0
419 -420 518 0
-419 -420 -518 0
421 422 -519 0
-421 422 519 0
421 -422 519 0
-421 -422 -519 0
423 424 -520 0
-423 424 520 0
423 -424 520 0
-423 -424 -520 0
425 426 -521 0
-425 426 521 0
425 -426 521 0
-425 -426 -521 0
427 428 -522 0
-427 428 522 0
427 -428 522 0
-427 -428 -522 0
429 430 -523 0
-429 430 523 0
429 -430 523 0
-429 -430 -523 0
431 432 -524 0
-431 432 524 0
431 -432 524 0
-431 -432 -524 0
433 434 -525 0
-433 434 525 0
433 -434 525 0
-433 -434 -525 0
435 436 -526 0
-435 436 526 0
435 -436 526 0
-435 -436 -526 0
437 438 -527 0
-437 438 527 0
437 -438 527 0
-437 -438 -527 0
439 440 -528 0
-439 440 528 0
439 -440 528 0
-439 -440 -528 0
441 442 -529 0
-441 442 529 0
441 -442 529 0
-441 -442 -529 0
443 444 -530 0
-443 444 530 0
443 -444 530 0
-443 -444 -530 0
445 446 -531 0
-445 446 531 0
445 -446 531 0
-445 -446 -531 0
447 448 -532 0
-447 448 532 0
447 -448 532 0
-447 -448 -532 0
449 450 -533 0
-449 450 533 0
449 -450 533 0
-449 -450 -533 0
451 452 -534 0
-451 452 534 0
451 -452 534 0
-451 -452 -534 0
453 454 -535 0
-453 454 535 0
453 -454 535 0
-453 -454 -535 0
455 456 -536 0
-455 456 536 0
455 -456 536 0
-455 -456 -536 0
457 458 -537 0
-457 458 537 0
457 -458 537 0
-457 -458 -537 0
459 460 -538 0
-459 460 538 0
459 -460 538 0
-459 -460 -538 0
461 462 -539 0
-461 462 539 0
461 -462 539 0
-461 -462 -539 0
463 307 -540 0
-463 307 540 0
463 -307 540 0
-463 -307 -540 0
464 465 -541 0
-464 465 541 0
464 -465 541 0
-464 -465 -541 0
466 467 -542 0
-466 467 542 0
466 -467 542 0
-466 -467 -542 0
468 469 -543 0
-468 469 543 0
468 -469 543 0
-468 -469 -543 0
470 471 -544 0
-470 471 544 0
470 -471 544 0
-470 -471 -544 0
472 473 -545 0
-472 473 545 0
472 -473 545 0
-472 -473 -545 0
474 475 -546 0
-474 475 546 0
474 -475 546 0
-474 -475 -546 0
476 477 -547 0
-476 477 547 0
476 -477 547 0
-476 -477 -547 0
478 479 -548 0
-478 479 548 0
478 -479 548 0
-478 -479 -548 0
480 481 -549 0
-480 481 549 0
480 -481 549 0
-480 -481 -549 0
482 483 -550 0
-482 483 550 0
482 -483 550 0
-482 -483 -550 0
484 485 -551 0
-484 485 551 0
484 -485 551 0
-484 -485 -551 0
486 487 -552 0
-486 487 552 0
486 -487 552 0
-486 -487 -552 0
488 489 -553 0
-488 489 553 0
488 -489 553 0
-488 -489 -553 0
490 491 -554 0
-490 491 554 0
490 -491 554 0
-490 -491 -554 0
492 493 -555 0
-492 493 555 0
492 -493 555 0
-492 -493 -555 0
494 495 -556 0
-494 495 556 0
494 -495 556 0
-494 -495 -556 0
496 497 -557 0
-496 497 557 0
496 -497 557 0
-496 -497 -557 0
498 499 -558 0
-498 499 558 0
498 -499 558 0
-498 -499 -558 0
500 501 -559 0
-500 501 559 0
500 -501 559 0
-500 -501 -559 0
502 503 -560 0
-502 503 560 0
502 -503 560 0
-502 -503 -560 0
504 505 -561 0
-504 505 561 0
504 -505 561 0
-504 -505 -561 0
506 507 -562 0
-506 507 562 0
506 -507 562 0
-506 -507 -562 0
508 509 -563 0
-508 509 563 0
508 -509 563 0
-508 -509 -563 0
510 511 -564 0
-510 511 564 0
510 -511 564 0
-510 -511 -564 0
512 513 -565 0
-512 513 565 0
512 -513 565 0
-512 -513 -565 0
514 515 -566 0
-514 515 566 0
514 -515 566 0
-514 -515 -566 0
516 517 -567 0
-516 517 567 0
516 -517 567 0
-516 -517 -567 0
518 519 -568 0
-518 519 568 0
518 -519 568 0
-518 -519 -568 0
520 521 -569 0
-520 521 569 0
520 -521 569 0
-520 -521 -569 0
522 523 -570 0
-522 523 570 0
522 -523 570 0
-522 -523 -570 0
524 525 -571 0
-524 525 571 0
524 -525 571 0
-524 -525 -571 0
526 527 -572 0
-526 527 572 0
526 -527 572 0
-526 -527 -572 0
528 529 -573 0
-528 529 573 0
528 -529 573 0
-528 -529 -573 0
530 531 -574 0
-530 531 574 0
530 -531 574 0
-530 -531 -574 0
532 533 -575 0
-532 533 575 0
532 -533 575 0
-532 -533 -575 0
534 535 -576 0
-534 535 576 0
534 -535 576 0
-534 -535 -576 0
536 537 -577 0
-536 537 577 0
536 -537 577 0
-536 -537 -577 0
538 539 -578 0
-538 539 578 0
538 -539 578 0
-538 -539 -578 0
541 542 -579 0
-541 542 579 0
541 -542 579 0
-541 -542 -579 0
543 544 -580 0
-543 544 580 0
543 -544 580 0
-543 -544 -580 0
545 546 -581 0
-545 546 581 0
545 -546 581 0
-545 -546 -581 0
547 548 -582 0
-547 548 582 0
547 -548 582 0
-547 -548 -582 0
549 550 -583 0
-549 550 583 0
549 -550 583 0
-549 -550 -583 0
551 552 -584 0
-551 552 584 0
551 -552 584 0
-551 -552 -584 0
553 554 -585 0
-553 554 585 0
553 -554 585 0
-553 -554 -585 0
555 556 -586 0
-555 556 586 0
555 -556 586 0
-555 -556 -586 0
557 558 -587 0
-557 558 587 0
557 -558 587 0
-557 -558 -587 0
559 560 -588 0
-559 560 588 0
559 -560 588 0
-559 -560 -588 0
561 562 -589 0
-561 562 589 0
561 -562 589 0
-561 -562 -589 0
563 564 -590 0
-563 564 590 0
563 -564 590 0
-563 -564 -590 0
565 566 -591 0
-565 566 591 0
565 -566 591 0
-565 -566 -591 0
567 568 -592 0
-567 568 592 0
567 -568 592 0
-567 -568 -592 0
569 570 -593 0
-569 570 593 0
569 -570 593 0
-569 -570 -593 0
571 572 -594 0
-571 572 594 0
571 -572 594 0
-571 -572 -594 0
573 574 -595 0
-573 574 595 0
573 -574 595 0
-573 -574 -595 0
575 576 -596 0
-575 576 596 0
575 -576 596 0
-575 -576 -596 0
577 578 -597 0
-577 578 597 0
577 -578 597 0
-577 -578 -597 0
579 580 -598 0
-579 580 598 0
579 -580 598 0
-579 -580 -598 0
581 582 -599 0
-581 582 599 0
581 -582 599 0
-581 -582 -599 0
583 584 -600 0
-583 584 600 0
583 -584 600 0
-583 -584 -600 0
585 586 -601 0
-585 586 601 0
585 -586 601 0
-585 -586 -601 0
587 588 -602 0
-587 588 602 0
587 -588 602 0
-587 -588 -602 0
589 590 -603 0
-589 590 603 0
589 -590 603 0
-589 -590 -603 0
591 592 -604 0
-591 592 604 0
591 -592 604 0
-591 -592 -604 0
593 594 -605 0
-593 594 605 0
593 -594 605 0
-593 -594 -605 0
595 596 -606 0
-595 596 606 0
595 -596 606 0
-595 -596 -606 0
597 540 -607 0
-597 540 607 0
597 -540 607 0
-597 -540 -607 0
598 599 -608 0
-598 599 608 0
598 -599 608 0
-598 -599 -608 0
600 601 -609 0
-600 601 609 0
600 -601 609 0
-600 -601 -609 0
602 603 -610 0
-602 603 610 0
602 -603 610 0
-602 -603 -610 0
604 605 -611 0
-604 605 611 0
604 -605 611 0
-604 -605 -611 0
606 607 -612 0
-606 607 612 0
606 -607 612 0
-606 -607 -612 0
608 609 -613 0
-608 609 613 0
608 -609 613 0
-608 -609 -613 0
610 611 -614 0
-610 611 614 0
610 -611 614 0
-610 -611 -614 0
613 614 -615 0
-613 614 615 0
613 -614 615 0
-613 -614 -615 0
615 612 -308 0
-615 612 308 0
615 -612 308 0
-615 -612 -308 0
